(assert (forall ((pkt_0_4_6_0  Int  )(state_group_0_state_0_5_7_0  Int  )(state_group_0_state_1_6_8_0  Int  )) (let ((_n0 state_group_0_state_1_6_8_0 ))
(let ((_n1 state_group_0_state_0_5_7_0 ))
(let ((_n2 true ))
(let ((_n3 (+   _n1   (ite  _n2  1 0) ) ))
(let ((_n4 (ite (=  _n0  0)  _n3   _n1  ) ))
(let ((_n5 false ))
(let ((_n6 (=   _n0   (ite  _n5  1 0) ) ))
(let ((_n7 (not  _n6 ) ))
(let ((_n8 1000 ))
(let ((_n9 pkt_0_4_6_0 ))
(let ((_n10 (ite (=  _n0  0)  _n9   (ite  _n5  1 0)  ) ))
(let ((_n11 (-  _n10 )))
(let ((_n12 (ite (=  _n0  0)  _n0   (ite  _n5  1 0)  ) ))
(let ((_n13 (+   _n12   _n11 ) ))
(let ((_n14 (<   _n13   _n8 ) ))
(let ((_n15 (ite (=  _n0  0)  _n14   _n5  ) ))
(let ((_n16 999 ))
(let ((_n17 (and   _n15   _n6 ) ))
(let ((_n18 (ite  _n17   _n1   (ite  _n5  1 0)  ) ))
(let ((_n19 (=   _n18   _n16 ) ))
(let ((_n20 (not  _n19 ) ))
(let ((_n21 (and   _n17   _n20 ) ))
(let ((_n22 (not  _n17 ) ))
(let ((_n23 (or   _n21   _n22 ) ))
(let ((_n24 (not  _n23 ) ))
(let ((_n25 (+   _n1   (ite  _n24  1 0) ) ))
(let ((_n26 (and   _n21   _n17 ) ))
(let ((_n27 (+   _n1   (ite  _n26  1 0) ) ))
(let ((_n28 (ite (=  (ite  _n21  1 0)  1)  _n27   _n25  ) ))
(let ((_n29 (ite (=  (ite  _n15  1 0)  1)  _n28   _n1  ) ))
(let ((_n30 (ite (=  (ite  _n7  1 0)  1)  _n1   _n29  ) ))
(let ((_n31 (=   _n30   _n4 ) ))
(let ((_n33 (ite (=  _n1  999)  (ite  _n2  1 0)   _n0  ) ))
(let ((_n34 (ite (=  _n0  0)  _n33   _n0  ) ))
(let ((_n35 (+   _n0   (ite  _n24  1 0) ) ))
(let ((_n36 (ite (=  (ite  _n21  1 0)  1)  _n0   _n35  ) ))
(let ((_n37 (ite (=  (ite  _n15  1 0)  1)  _n36   _n0  ) ))
(let ((_n38 (ite (=  (ite  _n7  1 0)  1)  _n0   _n37  ) ))
(let ((_n39 (=   _n38   _n34 ) ))
(implies  (and (and (>= state_group_0_state_1_6_8_0 0) (< state_group_0_state_1_6_8_0 1024 ))  (and (and (>= state_group_0_state_0_5_7_0 0) (< state_group_0_state_0_5_7_0 1024 ))  (and (>= pkt_0_4_6_0 0) (< pkt_0_4_6_0 1024 )) ) )   (and  _n31  _n39 )  ))))))))))))))))))))))))))))))))))))))))))
(check-sat)
(get-model)
(exit)